(declare-const X String)
; www\x2Erichfind\x2Ecom\d+UI2
(assert (not (str.in_re X (re.++ (str.to_re "www.richfind.com") (re.+ (re.range "0" "9")) (str.to_re "UI2\u{a}")))))
; /filename=[^\n]*\x2enab/i
(assert (not (str.in_re X (re.++ (str.to_re "/filename=") (re.* (re.comp (str.to_re "\u{a}"))) (str.to_re ".nab/i\u{a}")))))
; Xtra\s+Host\x3A\s+Referer\x3aThisSubject\x3a
(assert (str.in_re X (re.++ (str.to_re "Xtra") (re.+ (re.union (str.to_re " ") (str.to_re "\u{9}") (str.to_re "\u{a}") (str.to_re "\u{c}") (str.to_re "\u{d}"))) (str.to_re "Host:") (re.+ (re.union (str.to_re " ") (str.to_re "\u{9}") (str.to_re "\u{a}") (str.to_re "\u{c}") (str.to_re "\u{d}"))) (str.to_re "Referer:ThisSubject:\u{a}"))))
; Everyware.*Email.*Host\x3Astepwww\x2Ekornputers\x2Ecom
(assert (not (str.in_re X (re.++ (str.to_re "Everyware") (re.* re.allchar) (str.to_re "Email") (re.* re.allchar) (str.to_re "Host:stepwww.kornputers.com\u{a}")))))
(check-sat)
